p cnf 528 1255
a 350 353 357 360 365 368 372 462 380 383 387 390 479 396 400 403 410 413 417 420 425 428 432 435 337 344 511 301 315 318 326 329 7 13 24 30 2 1 40 18 6 12 35 23 29 50 45 60 55 70 65 80 75 85 90 95 105 100 110 115 120 130 125 135 140 145 150 180 162 154 158 175 167 171 190 185 200 195 210 205 220 215 225 230 235 245 240 250 255 260 264 272 268 276 281 286 299 291 295 314 309 325 336 343 0
d 375 462 2 0
d 395 479 264 272 2 0
d 303 260 30 24 0
d 300 2 511 291 295 13 0
d 441 299 314 325 336 343 0
d 3 2 0
d 4 1 2 0
d 5 1 2 0
d 8 7 0
d 9 6 7 0
d 10 6 7 0
d 11 1 2 6 7 0
d 14 13 0
d 15 12 13 0
d 16 12 13 0
d 17 1 2 6 7 12 13 0
d 19 6 12 0
d 20 18 6 12 0
d 21 18 6 12 0
d 22 1 2 6 7 12 13 18 0
d 25 24 0
d 26 23 24 0
d 27 23 24 0
d 28 1 2 6 7 12 13 18 23 24 0
d 31 30 0
d 32 29 30 0
d 33 29 30 0
d 34 1 2 6 7 12 13 18 23 24 29 30 0
d 36 23 29 0
d 37 35 23 29 0
d 38 35 23 29 0
d 39 1 2 6 7 12 13 18 23 24 29 30 35 0
d 41 18 35 0
d 42 40 18 35 0
d 43 40 18 35 0
d 44 1 2 6 7 12 13 18 23 24 29 30 35 40 0
d 46 7 12 0
d 47 45 7 12 0
d 48 45 7 12 0
d 49 1 2 6 7 12 13 18 23 24 29 30 35 40 45 0
d 51 45 35 0
d 52 50 45 35 0
d 53 50 45 35 0
d 54 1 2 6 7 12 13 18 23 24 29 30 35 40 45 50 0
d 56 6 13 0
d 57 55 6 13 0
d 58 55 6 13 0
d 59 1 2 6 7 12 13 18 23 24 29 30 35 40 45 50 55 0
d 61 55 35 0
d 62 60 55 35 0
d 63 60 55 35 0
d 64 1 2 6 7 12 13 18 23 24 29 30 35 40 45 50 55 60 0
d 66 7 13 0
d 67 65 7 13 0
d 68 65 7 13 0
d 69 1 2 6 7 12 13 18 23 24 29 30 35 40 45 50 55 60 65 0
d 71 65 35 0
d 72 70 65 35 0
d 73 70 65 35 0
d 74 1 2 6 7 12 13 18 23 24 29 30 35 40 45 50 55 60 65 70 0
d 76 24 29 0
d 77 75 24 29 0
d 78 75 24 29 0
d 79 1 2 6 7 12 13 18 23 24 29 30 35 40 45 50 55 60 65 70 75 0
d 81 18 75 0
d 82 80 18 75 0
d 83 80 18 75 0
d 84 1 2 6 7 12 13 18 23 24 29 30 35 40 45 50 55 60 65 70 75 80 0
d 86 45 75 0
d 87 85 45 75 0
d 88 85 45 75 0
d 89 1 2 6 7 12 13 18 23 24 29 30 35 40 45 50 55 60 65 70 75 80 85 0
d 91 55 75 0
d 92 90 55 75 0
d 93 90 55 75 0
d 94 1 2 6 7 12 13 18 23 24 29 30 35 40 45 50 55 60 65 70 75 80 85 90 0
d 96 65 75 0
d 97 95 65 75 0
d 98 95 65 75 0
d 99 1 2 6 7 12 13 18 23 24 29 30 35 40 45 50 55 60 65 70 75 80 85 90 95 0
d 101 23 30 0
d 102 100 23 30 0
d 103 100 23 30 0
d 104 1 2 6 7 12 13 18 23 24 29 30 35 40 45 50 55 60 65 70 75 80 85 90 95 100 0
d 106 18 100 0
d 107 105 18 100 0
d 108 105 18 100 0
d 109 1 2 6 7 12 13 18 23 24 29 30 35 40 45 50 55 60 65 70 75 80 85 90 95 100 105 0
d 111 45 100 0
d 112 110 45 100 0
d 113 110 45 100 0
d 114 1 2 6 7 12 13 18 23 24 29 30 35 40 45 50 55 60 65 70 75 80 85 90 95 100 105 110 0
d 116 55 100 0
d 117 115 55 100 0
d 118 115 55 100 0
d 119 1 2 6 7 12 13 18 23 24 29 30 35 40 45 50 55 60 65 70 75 80 85 90 95 100 105 110 115 0
d 121 65 100 0
d 122 120 65 100 0
d 123 120 65 100 0
d 124 1 2 6 7 12 13 18 23 24 29 30 35 40 45 50 55 60 65 70 75 80 85 90 95 100 105 110 115 120 0
d 126 24 30 0
d 127 125 24 30 0
d 128 125 24 30 0
d 129 1 2 6 7 12 13 18 23 24 29 30 35 40 45 50 55 60 65 70 75 80 85 90 95 100 105 110 115 120 125 0
d 131 18 125 0
d 132 130 18 125 0
d 133 130 18 125 0
d 134 1 2 6 7 12 13 18 23 24 29 30 35 40 45 50 55 60 65 70 75 80 85 90 95 100 105 110 115 120 125 130 0
d 136 45 125 0
d 137 135 45 125 0
d 138 135 45 125 0
d 139 1 2 6 7 12 13 18 23 24 29 30 35 40 45 50 55 60 65 70 75 80 85 90 95 100 105 110 115 120 125 130 135 0
d 141 55 125 0
d 142 140 55 125 0
d 143 140 55 125 0
d 144 1 2 6 7 12 13 18 23 24 29 30 35 40 45 50 55 60 65 70 75 80 85 90 95 100 105 110 115 120 125 130 135 140 0
d 146 65 125 0
d 147 145 65 125 0
d 148 145 65 125 0
d 149 1 2 6 7 12 13 18 23 24 29 30 35 40 45 50 55 60 65 70 75 80 85 90 95 100 105 110 115 120 125 130 135 140 145 0
d 151 150 2 0
d 152 150 2 0
d 153 1 2 6 7 12 13 18 23 24 29 30 35 40 45 50 55 60 65 70 75 80 85 90 95 100 105 110 115 120 125 130 135 140 145 150 0
d 155 154 7 0
d 156 154 7 0
d 157 1 2 6 7 12 13 18 23 24 29 30 35 40 45 50 55 60 65 70 75 80 85 90 95 100 105 110 115 120 125 130 135 140 145 150 154 0
d 159 158 13 0
d 160 158 13 0
d 161 1 2 6 7 12 13 18 23 24 29 30 35 40 45 50 55 60 65 70 75 80 85 90 95 100 105 110 115 120 125 130 135 140 145 150 154 158 0
d 163 154 158 0
d 164 162 154 158 0
d 165 162 154 158 0
d 166 1 2 6 7 12 13 18 23 24 29 30 35 40 45 50 55 60 65 70 75 80 85 90 95 100 105 110 115 120 125 130 135 140 145 150 154 158 162 0
d 168 167 24 0
d 169 167 24 0
d 170 1 2 6 7 12 13 18 23 24 29 30 35 40 45 50 55 60 65 70 75 80 85 90 95 100 105 110 115 120 125 130 135 140 145 150 154 158 162 167 0
d 172 171 30 0
d 173 171 30 0
d 174 1 2 6 7 12 13 18 23 24 29 30 35 40 45 50 55 60 65 70 75 80 85 90 95 100 105 110 115 120 125 130 135 140 145 150 154 158 162 167 171 0
d 176 167 171 0
d 177 175 167 171 0
d 178 175 167 171 0
d 179 1 2 6 7 12 13 18 23 24 29 30 35 40 45 50 55 60 65 70 75 80 85 90 95 100 105 110 115 120 125 130 135 140 145 150 154 158 162 167 171 175 0
d 181 162 175 0
d 182 180 162 175 0
d 183 180 162 175 0
d 184 1 2 6 7 12 13 18 23 24 29 30 35 40 45 50 55 60 65 70 75 80 85 90 95 100 105 110 115 120 125 130 135 140 145 150 154 158 162 167 171 175 180 0
d 186 7 158 0
d 187 185 7 158 0
d 188 185 7 158 0
d 189 1 2 6 7 12 13 18 23 24 29 30 35 40 45 50 55 60 65 70 75 80 85 90 95 100 105 110 115 120 125 130 135 140 145 150 154 158 162 167 171 175 180 185 0
d 191 185 175 0
d 192 190 185 175 0
d 193 190 185 175 0
d 194 1 2 6 7 12 13 18 23 24 29 30 35 40 45 50 55 60 65 70 75 80 85 90 95 100 105 110 115 120 125 130 135 140 145 150 154 158 162 167 171 175 180 185 190 0
d 196 154 13 0
d 197 195 154 13 0
d 198 195 154 13 0
d 199 1 2 6 7 12 13 18 23 24 29 30 35 40 45 50 55 60 65 70 75 80 85 90 95 100 105 110 115 120 125 130 135 140 145 150 154 158 162 167 171 175 180 185 190 195 0
d 201 195 175 0
d 202 200 195 175 0
d 203 200 195 175 0
d 204 1 2 6 7 12 13 18 23 24 29 30 35 40 45 50 55 60 65 70 75 80 85 90 95 100 105 110 115 120 125 130 135 140 145 150 154 158 162 167 171 175 180 185 190 195 200 0
d 206 7 13 0
d 207 205 7 13 0
d 208 205 7 13 0
d 209 1 2 6 7 12 13 18 23 24 29 30 35 40 45 50 55 60 65 70 75 80 85 90 95 100 105 110 115 120 125 130 135 140 145 150 154 158 162 167 171 175 180 185 190 195 200 205 0
d 211 205 175 0
d 212 210 205 175 0
d 213 210 205 175 0
d 214 1 2 6 7 12 13 18 23 24 29 30 35 40 45 50 55 60 65 70 75 80 85 90 95 100 105 110 115 120 125 130 135 140 145 150 154 158 162 167 171 175 180 185 190 195 200 205 210 0
d 216 24 171 0
d 217 215 24 171 0
d 218 215 24 171 0
d 219 1 2 6 7 12 13 18 23 24 29 30 35 40 45 50 55 60 65 70 75 80 85 90 95 100 105 110 115 120 125 130 135 140 145 150 154 158 162 167 171 175 180 185 190 195 200 205 210 215 0
d 221 162 215 0
d 222 220 162 215 0
d 223 220 162 215 0
d 224 1 2 6 7 12 13 18 23 24 29 30 35 40 45 50 55 60 65 70 75 80 85 90 95 100 105 110 115 120 125 130 135 140 145 150 154 158 162 167 171 175 180 185 190 195 200 205 210 215 220 0
d 226 185 215 0
d 227 225 185 215 0
d 228 225 185 215 0
d 229 1 2 6 7 12 13 18 23 24 29 30 35 40 45 50 55 60 65 70 75 80 85 90 95 100 105 110 115 120 125 130 135 140 145 150 154 158 162 167 171 175 180 185 190 195 200 205 210 215 220 225 0
d 231 195 215 0
d 232 230 195 215 0
d 233 230 195 215 0
d 234 1 2 6 7 12 13 18 23 24 29 30 35 40 45 50 55 60 65 70 75 80 85 90 95 100 105 110 115 120 125 130 135 140 145 150 154 158 162 167 171 175 180 185 190 195 200 205 210 215 220 225 230 0
d 236 205 215 0
d 237 235 205 215 0
d 238 235 205 215 0
d 239 1 2 6 7 12 13 18 23 24 29 30 35 40 45 50 55 60 65 70 75 80 85 90 95 100 105 110 115 120 125 130 135 140 145 150 154 158 162 167 171 175 180 185 190 195 200 205 210 215 220 225 230 235 0
d 241 167 30 0
d 242 240 167 30 0
d 243 240 167 30 0
d 244 1 2 6 7 12 13 18 23 24 29 30 35 40 45 50 55 60 65 70 75 80 85 90 95 100 105 110 115 120 125 130 135 140 145 150 154 158 162 167 171 175 180 185 190 195 200 205 210 215 220 225 230 235 240 0
d 246 162 240 0
d 247 245 162 240 0
d 248 245 162 240 0
d 249 1 2 6 7 12 13 18 23 24 29 30 35 40 45 50 55 60 65 70 75 80 85 90 95 100 105 110 115 120 125 130 135 140 145 150 154 158 162 167 171 175 180 185 190 195 200 205 210 215 220 225 230 235 240 245 0
d 251 185 240 0
d 252 250 185 240 0
d 253 250 185 240 0
d 254 1 2 6 7 12 13 18 23 24 29 30 35 40 45 50 55 60 65 70 75 80 85 90 95 100 105 110 115 120 125 130 135 140 145 150 154 158 162 167 171 175 180 185 190 195 200 205 210 215 220 225 230 235 240 245 250 0
d 256 195 240 0
d 257 255 195 240 0
d 258 255 195 240 0
d 259 1 2 6 7 12 13 18 23 24 29 30 35 40 45 50 55 60 65 70 75 80 85 90 95 100 105 110 115 120 125 130 135 140 145 150 154 158 162 167 171 175 180 185 190 195 200 205 210 215 220 225 230 235 240 245 250 255 0
d 261 260 205 0
d 262 260 205 0
d 263 1 2 6 7 12 13 18 23 24 29 30 35 40 45 50 55 60 65 70 75 80 85 90 95 100 105 110 115 120 125 130 135 140 145 150 154 158 162 167 171 175 180 185 190 195 200 205 210 215 220 225 230 235 240 245 250 255 260 0
d 265 264 162 0
d 266 264 162 0
d 267 1 2 6 7 12 13 18 23 24 29 30 35 40 45 50 55 60 65 70 75 80 85 90 95 100 105 110 115 120 125 130 135 140 145 150 154 158 162 167 171 175 180 185 190 195 200 205 210 215 220 225 230 235 240 245 250 255 260 264 0
d 269 268 24 30 0
d 270 268 24 30 0
d 271 1 2 6 7 12 13 18 23 24 29 30 35 40 45 50 55 60 65 70 75 80 85 90 95 100 105 110 115 120 125 130 135 140 145 150 154 158 162 167 171 175 180 185 190 195 200 205 210 215 220 225 230 235 240 245 250 255 260 264 268 0
d 273 272 268 0
d 274 272 268 0
d 275 1 2 6 7 12 13 18 23 24 29 30 35 40 45 50 55 60 65 70 75 80 85 90 95 100 105 110 115 120 125 130 135 140 145 150 154 158 162 167 171 175 180 185 190 195 200 205 210 215 220 225 230 235 240 245 250 255 260 264 268 272 0
d 277 185 268 0
d 278 276 185 268 0
d 279 276 185 268 0
d 280 1 2 6 7 12 13 18 23 24 29 30 35 40 45 50 55 60 65 70 75 80 85 90 95 100 105 110 115 120 125 130 135 140 145 150 154 158 162 167 171 175 180 185 190 195 200 205 210 215 220 225 230 235 240 245 250 255 260 264 268 272 276 0
d 282 195 268 0
d 283 281 195 268 0
d 284 281 195 268 0
d 285 1 2 6 7 12 13 18 23 24 29 30 35 40 45 50 55 60 65 70 75 80 85 90 95 100 105 110 115 120 125 130 135 140 145 150 154 158 162 167 171 175 180 185 190 195 200 205 210 215 220 225 230 235 240 245 250 255 260 264 268 272 276 281 0
d 287 205 268 0
d 288 286 205 268 0
d 289 286 205 268 0
d 290 1 2 6 7 12 13 18 23 24 29 30 35 40 45 50 55 60 65 70 75 80 85 90 95 100 105 110 115 120 125 130 135 140 145 150 154 158 162 167 171 175 180 185 190 195 200 205 210 215 220 225 230 235 240 245 250 255 260 264 268 272 276 281 286 0
d 292 291 240 0
d 293 291 240 0
d 294 1 2 6 7 12 13 18 23 24 29 30 35 40 45 50 55 60 65 70 75 80 85 90 95 100 105 110 115 120 125 130 135 140 145 150 154 158 162 167 171 175 180 185 190 195 200 205 210 215 220 225 230 235 240 245 250 255 260 264 268 272 276 281 286 291 0
d 296 295 154 0
d 297 295 154 0
d 298 1 2 6 7 12 13 18 23 24 29 30 35 40 45 50 55 60 65 70 75 80 85 90 95 100 105 110 115 120 125 130 135 140 145 150 154 158 162 167 171 175 180 185 190 195 200 205 210 215 220 225 230 235 240 245 250 255 260 264 268 272 276 281 286 291 295 0
d 302 2 301 0
d 304 2 301 260 30 24 0
d 305 2 511 291 295 13 301 260 30 24 0
d 306 299 2 511 291 295 13 301 260 30 24 0
d 307 299 2 511 291 295 13 301 260 30 24 0
d 308 1 2 6 7 12 13 18 23 24 29 30 35 40 45 50 55 60 65 70 75 80 85 90 95 100 105 110 115 120 125 130 135 140 145 150 154 158 162 167 171 175 180 185 190 195 200 205 210 215 220 225 230 235 240 245 250 255 260 264 268 272 276 281 286 291 295 299 511 301 0
d 310 162 268 0
d 311 309 162 268 0
d 312 309 162 268 0
d 313 1 2 6 7 12 13 18 23 24 29 30 35 40 45 50 55 60 65 70 75 80 85 90 95 100 105 110 115 120 125 130 135 140 145 150 154 158 162 167 171 175 180 185 190 195 200 205 210 215 220 225 230 235 240 245 250 255 260 264 268 272 276 281 286 291 295 299 511 301 309 0
d 316 2 315 0
d 317 2 315 309 0
d 319 2 318 0
d 320 2 318 276 0
d 321 2 315 309 318 276 0
d 322 314 2 315 309 318 276 0
d 323 314 2 315 309 318 276 0
d 324 1 2 6 7 12 13 18 23 24 29 30 35 40 45 50 55 60 65 70 75 80 85 90 95 100 105 110 115 120 125 130 135 140 145 150 154 158 162 167 171 175 180 185 190 195 200 205 210 215 220 225 230 235 240 245 250 255 260 264 268 272 276 281 286 291 295 299 511 301 309 314 315 318 0
d 327 2 326 0
d 328 2 326 281 0
d 330 2 329 0
d 331 2 329 286 0
d 332 2 326 281 329 286 0
d 333 325 2 326 281 329 286 0
d 334 325 2 326 281 329 286 0
d 335 1 2 6 7 12 13 18 23 24 29 30 35 40 45 50 55 60 65 70 75 80 85 90 95 100 105 110 115 120 125 130 135 140 145 150 154 158 162 167 171 175 180 185 190 195 200 205 210 215 220 225 230 235 240 245 250 255 260 264 268 272 276 281 286 291 295 299 511 301 309 314 315 318 325 326 329 0
d 338 2 337 0
d 339 2 337 245 0
d 340 336 2 337 245 0
d 341 336 2 337 245 0
d 342 1 2 6 7 12 13 18 23 24 29 30 35 40 45 50 55 60 65 70 75 80 85 90 95 100 105 110 115 120 125 130 135 140 145 150 154 158 162 167 171 175 180 185 190 195 200 205 210 215 220 225 230 235 240 245 250 255 260 264 268 272 276 281 286 291 295 299 511 301 309 314 315 318 325 326 329 336 337 0
d 345 2 344 0
d 346 2 344 250 0
d 347 343 2 344 250 0
d 348 343 2 344 250 0
d 349 1 2 6 7 12 13 18 23 24 29 30 35 40 45 50 55 60 65 70 75 80 85 90 95 100 105 110 115 120 125 130 135 140 145 150 154 158 162 167 171 175 180 185 190 195 200 205 210 215 220 225 230 235 240 245 250 255 260 264 268 272 276 281 286 291 295 299 511 301 309 314 315 318 325 326 329 336 337 343 344 0
d 351 150 350 0
d 352 150 350 180 0
d 354 150 353 0
d 355 150 353 190 0
d 356 150 350 180 353 190 0
d 358 150 357 0
d 359 150 357 200 0
d 361 150 360 0
d 362 150 360 210 0
d 363 150 357 200 360 210 0
d 364 150 350 180 353 190 357 200 360 210 0
d 366 150 365 0
d 367 150 365 220 0
d 369 150 368 0
d 370 150 368 225 0
d 371 150 365 220 368 225 0
d 373 150 372 0
d 374 150 372 230 0
d 376 462 2 235 0
d 377 150 372 230 462 2 235 0
d 378 150 365 220 368 225 372 230 462 2 235 0
d 379 150 350 180 353 190 357 200 360 210 365 220 368 225 372 230 462 2 235 0
d 381 150 380 0
d 382 150 380 245 0
d 384 150 383 0
d 385 150 383 250 0
d 386 150 380 245 383 250 0
d 388 150 387 0
d 389 150 387 255 0
d 391 150 390 0
d 392 150 390 260 30 24 0
d 393 150 387 255 390 260 30 24 0
d 394 150 380 245 383 250 387 255 390 260 30 24 0
d 397 150 396 0
d 398 150 396 276 0
d 399 479 264 272 2 150 396 276 0
d 401 150 400 0
d 402 150 400 281 0
d 404 150 403 0
d 405 150 403 286 0
d 406 150 400 281 403 286 0
d 407 479 264 272 2 150 396 276 400 281 403 286 0
d 408 150 380 245 383 250 387 255 390 260 30 24 479 264 272 2 396 276 400 281 403 286 0
d 409 150 350 180 353 190 357 200 360 210 365 220 368 225 372 230 462 2 235 380 245 383 250 387 255 390 260 30 24 479 264 272 396 276 400 281 403 286 0
d 411 2 410 0
d 412 2 410 180 0
d 414 2 413 0
d 415 2 413 190 0
d 416 2 410 180 413 190 0
d 418 2 417 0
d 419 2 417 200 0
d 421 2 420 0
d 422 2 420 210 0
d 423 2 417 200 420 210 0
d 424 2 410 180 413 190 417 200 420 210 0
d 426 2 425 0
d 427 2 425 220 0
d 429 2 428 0
d 430 2 428 225 0
d 431 2 425 220 428 225 0
d 433 2 432 0
d 434 2 432 230 0
d 436 2 435 0
d 437 2 435 235 0
d 438 2 432 230 435 235 0
d 439 2 425 220 428 225 432 230 435 235 0
d 440 2 410 180 413 190 417 200 420 210 425 220 428 225 432 230 435 235 0
d 442 2 410 180 413 190 417 200 420 210 425 220 428 225 432 230 435 235 299 314 325 336 343 0
d 443 150 350 180 353 190 357 200 360 210 365 220 368 225 372 230 462 2 235 380 245 383 250 387 255 390 260 30 24 479 264 272 396 276 400 281 403 286 410 413 417 420 425 428 432 435 299 314 325 336 343 0
d 444 1 350 0
d 445 1 350 40 0
d 446 1 353 0
d 447 1 353 50 0
d 448 1 350 40 353 50 0
d 449 1 357 0
d 450 1 357 60 0
d 451 1 360 0
d 452 1 360 70 0
d 453 1 357 60 360 70 0
d 454 1 350 40 353 50 357 60 360 70 0
d 455 1 365 0
d 456 1 365 80 0
d 457 1 368 0
d 458 1 368 85 0
d 459 1 365 80 368 85 0
d 460 1 372 0
d 461 1 372 90 0
d 463 1 462 0
d 464 1 462 95 0
d 465 1 372 90 462 95 0
d 466 1 365 80 368 85 372 90 462 95 0
d 467 1 350 40 353 50 357 60 360 70 365 80 368 85 372 90 462 95 0
d 468 1 380 0
d 469 1 380 105 0
d 470 1 383 0
d 471 1 383 110 0
d 472 1 380 105 383 110 0
d 473 1 387 0
d 474 1 387 115 0
d 475 1 390 0
d 476 1 390 120 0
d 477 1 387 115 390 120 0
d 478 1 380 105 383 110 387 115 390 120 0
d 480 1 479 0
d 481 1 479 130 0
d 482 1 396 0
d 483 1 396 135 0
d 484 1 479 130 396 135 0
d 485 1 400 0
d 486 1 400 140 0
d 487 1 403 0
d 488 1 403 145 0
d 489 1 400 140 403 145 0
d 490 1 479 130 396 135 400 140 403 145 0
d 491 1 380 105 383 110 387 115 390 120 479 130 396 135 400 140 403 145 0
d 492 1 350 40 353 50 357 60 360 70 365 80 368 85 372 90 462 95 380 105 383 110 387 115 390 120 479 130 396 135 400 140 403 145 0
d 493 2 410 40 0
d 494 2 413 50 0
d 495 2 410 40 413 50 0
d 496 2 417 60 0
d 497 2 420 70 0
d 498 2 417 60 420 70 0
d 499 2 410 40 413 50 417 60 420 70 0
d 500 2 425 80 0
d 501 2 428 85 0
d 502 2 425 80 428 85 0
d 503 2 432 90 0
d 504 2 435 95 0
d 505 2 432 90 435 95 0
d 506 2 425 80 428 85 432 90 435 95 0
d 507 2 410 40 413 50 417 60 420 70 425 80 428 85 432 90 435 95 0
d 508 2 337 105 0
d 509 2 344 110 0
d 510 2 337 105 344 110 0
d 512 2 511 0
d 513 2 511 115 0
d 514 2 301 120 0
d 515 2 511 115 301 120 0
d 516 2 337 105 344 110 511 115 301 120 0
d 517 2 315 130 0
d 518 2 318 135 0
d 519 2 315 130 318 135 0
d 520 2 326 140 0
d 521 2 329 145 0
d 522 2 326 140 329 145 0
d 523 2 315 130 318 135 326 140 329 145 0
d 524 2 337 105 344 110 511 115 301 120 315 130 318 135 326 140 329 145 0
d 525 2 410 40 413 50 417 60 420 70 425 80 428 85 432 90 435 95 337 105 344 110 511 115 301 120 315 130 318 135 326 140 329 145 0
d 526 1 350 40 353 50 357 60 360 70 365 80 368 85 372 90 462 95 380 105 383 110 387 115 390 120 479 130 396 135 400 140 403 145 2 410 413 417 420 425 428 432 435 337 344 511 301 315 318 326 329 0
d 527 150 350 180 353 190 357 200 360 210 365 220 368 225 372 230 462 2 235 380 245 383 250 387 255 390 260 30 24 479 264 272 396 276 400 281 403 286 410 413 417 420 425 428 432 435 299 314 325 336 343 1 40 50 60 70 80 85 90 95 105 110 115 120 130 135 140 145 337 344 511 301 315 318 326 329 0
d 528 1 2 6 7 12 13 18 23 24 29 30 35 40 45 50 55 60 65 70 75 80 85 90 95 100 105 110 115 120 125 130 135 140 145 150 154 158 162 167 171 175 180 185 190 195 200 205 210 215 220 225 230 235 240 245 250 255 260 264 268 272 276 281 286 291 295 299 511 301 309 314 315 318 325 326 329 336 337 343 344 350 353 357 360 365 368 372 462 380 383 387 390 479 396 400 403 410 413 417 420 425 428 432 435 0
3 2 0
-3 -2 0
4 -1 -3 0
4 1 3 0
-4 -1 3 0
-4 1 -3 0
5 4 0
-5 -4 0
8 7 0
-8 -7 0
9 -6 -8 0
9 6 8 0
-9 -6 8 0
-9 6 -8 0
10 9 0
-10 -9 0
11 -5 0
11 -10 0
-11 5 10 0
14 13 0
-14 -13 0
15 -12 -14 0
15 12 14 0
-15 -12 14 0
-15 12 -14 0
16 15 0
-16 -15 0
17 -11 0
17 -16 0
-17 11 16 0
-19 6 0
-19 12 0
19 -6 -12 0
20 -18 -19 0
20 18 19 0
-20 -18 19 0
-20 18 -19 0
21 20 0
-21 -20 0
22 -17 0
22 -21 0
-22 17 21 0
25 24 0
-25 -24 0
26 -23 -25 0
26 23 25 0
-26 -23 25 0
-26 23 -25 0
27 26 0
-27 -26 0
28 -22 0
28 -27 0
-28 22 27 0
31 30 0
-31 -30 0
32 -29 -31 0
32 29 31 0
-32 -29 31 0
-32 29 -31 0
33 32 0
-33 -32 0
34 -28 0
34 -33 0
-34 28 33 0
-36 23 0
-36 29 0
36 -23 -29 0
37 -35 -36 0
37 35 36 0
-37 -35 36 0
-37 35 -36 0
38 37 0
-38 -37 0
39 -34 0
39 -38 0
-39 34 38 0
-41 18 0
-41 35 0
41 -18 -35 0
42 -40 -41 0
42 40 41 0
-42 -40 41 0
-42 40 -41 0
43 42 0
-43 -42 0
44 -39 0
44 -43 0
-44 39 43 0
-46 7 0
-46 12 0
46 -7 -12 0
47 -45 -46 0
47 45 46 0
-47 -45 46 0
-47 45 -46 0
48 47 0
-48 -47 0
49 -44 0
49 -48 0
-49 44 48 0
-51 45 0
-51 35 0
51 -45 -35 0
52 -50 -51 0
52 50 51 0
-52 -50 51 0
-52 50 -51 0
53 52 0
-53 -52 0
54 -49 0
54 -53 0
-54 49 53 0
-56 6 0
-56 13 0
56 -6 -13 0
57 -55 -56 0
57 55 56 0
-57 -55 56 0
-57 55 -56 0
58 57 0
-58 -57 0
59 -54 0
59 -58 0
-59 54 58 0
-61 55 0
-61 35 0
61 -55 -35 0
62 -60 -61 0
62 60 61 0
-62 -60 61 0
-62 60 -61 0
63 62 0
-63 -62 0
64 -59 0
64 -63 0
-64 59 63 0
-66 7 0
-66 13 0
66 -7 -13 0
67 -65 -66 0
67 65 66 0
-67 -65 66 0
-67 65 -66 0
68 67 0
-68 -67 0
69 -64 0
69 -68 0
-69 64 68 0
-71 65 0
-71 35 0
71 -65 -35 0
72 -70 -71 0
72 70 71 0
-72 -70 71 0
-72 70 -71 0
73 72 0
-73 -72 0
74 -69 0
74 -73 0
-74 69 73 0
-76 24 0
-76 29 0
76 -24 -29 0
77 -75 -76 0
77 75 76 0
-77 -75 76 0
-77 75 -76 0
78 77 0
-78 -77 0
79 -74 0
79 -78 0
-79 74 78 0
-81 18 0
-81 75 0
81 -18 -75 0
82 -80 -81 0
82 80 81 0
-82 -80 81 0
-82 80 -81 0
83 82 0
-83 -82 0
84 -79 0
84 -83 0
-84 79 83 0
-86 45 0
-86 75 0
86 -45 -75 0
87 -85 -86 0
87 85 86 0
-87 -85 86 0
-87 85 -86 0
88 87 0
-88 -87 0
89 -84 0
89 -88 0
-89 84 88 0
-91 55 0
-91 75 0
91 -55 -75 0
92 -90 -91 0
92 90 91 0
-92 -90 91 0
-92 90 -91 0
93 92 0
-93 -92 0
94 -89 0
94 -93 0
-94 89 93 0
-96 65 0
-96 75 0
96 -65 -75 0
97 -95 -96 0
97 95 96 0
-97 -95 96 0
-97 95 -96 0
98 97 0
-98 -97 0
99 -94 0
99 -98 0
-99 94 98 0
-101 23 0
-101 30 0
101 -23 -30 0
102 -100 -101 0
102 100 101 0
-102 -100 101 0
-102 100 -101 0
103 102 0
-103 -102 0
104 -99 0
104 -103 0
-104 99 103 0
-106 18 0
-106 100 0
106 -18 -100 0
107 -105 -106 0
107 105 106 0
-107 -105 106 0
-107 105 -106 0
108 107 0
-108 -107 0
109 -104 0
109 -108 0
-109 104 108 0
-111 45 0
-111 100 0
111 -45 -100 0
112 -110 -111 0
112 110 111 0
-112 -110 111 0
-112 110 -111 0
113 112 0
-113 -112 0
114 -109 0
114 -113 0
-114 109 113 0
-116 55 0
-116 100 0
116 -55 -100 0
117 -115 -116 0
117 115 116 0
-117 -115 116 0
-117 115 -116 0
118 117 0
-118 -117 0
119 -114 0
119 -118 0
-119 114 118 0
-121 65 0
-121 100 0
121 -65 -100 0
122 -120 -121 0
122 120 121 0
-122 -120 121 0
-122 120 -121 0
123 122 0
-123 -122 0
124 -119 0
124 -123 0
-124 119 123 0
-126 24 0
-126 30 0
126 -24 -30 0
127 -125 -126 0
127 125 126 0
-127 -125 126 0
-127 125 -126 0
128 127 0
-128 -127 0
129 -124 0
129 -128 0
-129 124 128 0
-131 18 0
-131 125 0
131 -18 -125 0
132 -130 -131 0
132 130 131 0
-132 -130 131 0
-132 130 -131 0
133 132 0
-133 -132 0
134 -129 0
134 -133 0
-134 129 133 0
-136 45 0
-136 125 0
136 -45 -125 0
137 -135 -136 0
137 135 136 0
-137 -135 136 0
-137 135 -136 0
138 137 0
-138 -137 0
139 -134 0
139 -138 0
-139 134 138 0
-141 55 0
-141 125 0
141 -55 -125 0
142 -140 -141 0
142 140 141 0
-142 -140 141 0
-142 140 -141 0
143 142 0
-143 -142 0
144 -139 0
144 -143 0
-144 139 143 0
-146 65 0
-146 125 0
146 -65 -125 0
147 -145 -146 0
147 145 146 0
-147 -145 146 0
-147 145 -146 0
148 147 0
-148 -147 0
149 -144 0
149 -148 0
-149 144 148 0
151 -150 -3 0
151 150 3 0
-151 -150 3 0
-151 150 -3 0
152 151 0
-152 -151 0
153 -149 0
153 -152 0
-153 149 152 0
155 -154 -8 0
155 154 8 0
-155 -154 8 0
-155 154 -8 0
156 155 0
-156 -155 0
157 -153 0
157 -156 0
-157 153 156 0
159 -158 -14 0
159 158 14 0
-159 -158 14 0
-159 158 -14 0
160 159 0
-160 -159 0
161 -157 0
161 -160 0
-161 157 160 0
-163 154 0
-163 158 0
163 -154 -158 0
164 -162 -163 0
164 162 163 0
-164 -162 163 0
-164 162 -163 0
165 164 0
-165 -164 0
166 -161 0
166 -165 0
-166 161 165 0
168 -167 -25 0
168 167 25 0
-168 -167 25 0
-168 167 -25 0
169 168 0
-169 -168 0
170 -166 0
170 -169 0
-170 166 169 0
172 -171 -31 0
172 171 31 0
-172 -171 31 0
-172 171 -31 0
173 172 0
-173 -172 0
174 -170 0
174 -173 0
-174 170 173 0
-176 167 0
-176 171 0
176 -167 -171 0
177 -175 -176 0
177 175 176 0
-177 -175 176 0
-177 175 -176 0
178 177 0
-178 -177 0
179 -174 0
179 -178 0
-179 174 178 0
-181 162 0
-181 175 0
181 -162 -175 0
182 -180 -181 0
182 180 181 0
-182 -180 181 0
-182 180 -181 0
183 182 0
-183 -182 0
184 -179 0
184 -183 0
-184 179 183 0
-186 7 0
-186 158 0
186 -7 -158 0
187 -185 -186 0
187 185 186 0
-187 -185 186 0
-187 185 -186 0
188 187 0
-188 -187 0
189 -184 0
189 -188 0
-189 184 188 0
-191 185 0
-191 175 0
191 -185 -175 0
192 -190 -191 0
192 190 191 0
-192 -190 191 0
-192 190 -191 0
193 192 0
-193 -192 0
194 -189 0
194 -193 0
-194 189 193 0
-196 154 0
-196 13 0
196 -154 -13 0
197 -195 -196 0
197 195 196 0
-197 -195 196 0
-197 195 -196 0
198 197 0
-198 -197 0
199 -194 0
199 -198 0
-199 194 198 0
-201 195 0
-201 175 0
201 -195 -175 0
202 -200 -201 0
202 200 201 0
-202 -200 201 0
-202 200 -201 0
203 202 0
-203 -202 0
204 -199 0
204 -203 0
-204 199 203 0
206 -7 -13 0
206 7 13 0
-206 -7 13 0
-206 7 -13 0
207 -205 -206 0
207 205 206 0
-207 -205 206 0
-207 205 -206 0
208 207 0
-208 -207 0
209 -204 0
209 -208 0
-209 204 208 0
-211 205 0
-211 175 0
211 -205 -175 0
212 -210 -211 0
212 210 211 0
-212 -210 211 0
-212 210 -211 0
213 212 0
-213 -212 0
214 -209 0
214 -213 0
-214 209 213 0
-216 24 0
-216 171 0
216 -24 -171 0
217 -215 -216 0
217 215 216 0
-217 -215 216 0
-217 215 -216 0
218 217 0
-218 -217 0
219 -214 0
219 -218 0
-219 214 218 0
-221 162 0
-221 215 0
221 -162 -215 0
222 -220 -221 0
222 220 221 0
-222 -220 221 0
-222 220 -221 0
223 222 0
-223 -222 0
224 -219 0
224 -223 0
-224 219 223 0
-226 185 0
-226 215 0
226 -185 -215 0
227 -225 -226 0
227 225 226 0
-227 -225 226 0
-227 225 -226 0
228 227 0
-228 -227 0
229 -224 0
229 -228 0
-229 224 228 0
-231 195 0
-231 215 0
231 -195 -215 0
232 -230 -231 0
232 230 231 0
-232 -230 231 0
-232 230 -231 0
233 232 0
-233 -232 0
234 -229 0
234 -233 0
-234 229 233 0
-236 205 0
-236 215 0
236 -205 -215 0
237 -235 -236 0
237 235 236 0
-237 -235 236 0
-237 235 -236 0
238 237 0
-238 -237 0
239 -234 0
239 -238 0
-239 234 238 0
-241 167 0
-241 30 0
241 -167 -30 0
242 -240 -241 0
242 240 241 0
-242 -240 241 0
-242 240 -241 0
243 242 0
-243 -242 0
244 -239 0
244 -243 0
-244 239 243 0
-246 162 0
-246 240 0
246 -162 -240 0
247 -245 -246 0
247 245 246 0
-247 -245 246 0
-247 245 -246 0
248 247 0
-248 -247 0
249 -244 0
249 -248 0
-249 244 248 0
-251 185 0
-251 240 0
251 -185 -240 0
252 -250 -251 0
252 250 251 0
-252 -250 251 0
-252 250 -251 0
253 252 0
-253 -252 0
254 -249 0
254 -253 0
-254 249 253 0
-256 195 0
-256 240 0
256 -195 -240 0
257 -255 -256 0
257 255 256 0
-257 -255 256 0
-257 255 -256 0
258 257 0
-258 -257 0
259 -254 0
259 -258 0
-259 254 258 0
261 -260 -205 0
261 260 205 0
-261 -260 205 0
-261 260 -205 0
262 261 0
-262 -261 0
263 -259 0
263 -262 0
-263 259 262 0
265 -264 -162 0
265 264 162 0
-265 -264 162 0
-265 264 -162 0
266 265 0
-266 -265 0
267 -263 0
267 -266 0
-267 263 266 0
269 -268 -126 0
269 268 126 0
-269 -268 126 0
-269 268 -126 0
270 269 0
-270 -269 0
271 -267 0
271 -270 0
-271 267 270 0
273 -272 -268 0
273 272 268 0
-273 -272 268 0
-273 272 -268 0
274 273 0
-274 -273 0
275 -271 0
275 -274 0
-275 271 274 0
-277 185 0
-277 268 0
277 -185 -268 0
278 -276 -277 0
278 276 277 0
-278 -276 277 0
-278 276 -277 0
279 278 0
-279 -278 0
280 -275 0
280 -279 0
-280 275 279 0
-282 195 0
-282 268 0
282 -195 -268 0
283 -281 -282 0
283 281 282 0
-283 -281 282 0
-283 281 -282 0
284 283 0
-284 -283 0
285 -280 0
285 -284 0
-285 280 284 0
-287 205 0
-287 268 0
287 -205 -268 0
288 -286 -287 0
288 286 287 0
-288 -286 287 0
-288 286 -287 0
289 288 0
-289 -288 0
290 -285 0
290 -289 0
-290 285 289 0
292 -291 -240 0
292 291 240 0
-292 -291 240 0
-292 291 -240 0
293 292 0
-293 -292 0
294 -290 0
294 -293 0
-294 290 293 0
296 -295 -154 0
296 295 154 0
-296 -295 154 0
-296 295 -154 0
297 296 0
-297 -296 0
298 -294 0
298 -297 0
-298 294 297 0
-302 2 0
-302 301 0
302 -2 -301 0
-304 302 0
-304 303 0
304 -302 -303 0
305 -300 0
305 -304 0
-305 300 304 0
306 -299 -305 0
306 299 305 0
-306 -299 305 0
-306 299 -305 0
307 306 0
-307 -306 0
308 -298 0
308 -307 0
-308 298 307 0
-310 162 0
-310 268 0
310 -162 -268 0
311 -309 -310 0
311 309 310 0
-311 -309 310 0
-311 309 -310 0
312 311 0
-312 -311 0
313 -308 0
313 -312 0
-313 308 312 0
-316 2 0
-316 315 0
316 -2 -315 0
-317 316 0
-317 309 0
317 -316 -309 0
-319 2 0
-319 318 0
319 -2 -318 0
-320 319 0
-320 276 0
320 -319 -276 0
321 -317 0
321 -320 0
-321 317 320 0
322 -314 -321 0
322 314 321 0
-322 -314 321 0
-322 314 -321 0
323 322 0
-323 -322 0
324 -313 0
324 -323 0
-324 313 323 0
-327 2 0
-327 326 0
327 -2 -326 0
-328 327 0
-328 281 0
328 -327 -281 0
-330 2 0
-330 329 0
330 -2 -329 0
-331 330 0
-331 286 0
331 -330 -286 0
332 -328 0
332 -331 0
-332 328 331 0
333 -325 -332 0
333 325 332 0
-333 -325 332 0
-333 325 -332 0
334 333 0
-334 -333 0
335 -324 0
335 -334 0
-335 324 334 0
-338 2 0
-338 337 0
338 -2 -337 0
-339 338 0
-339 245 0
339 -338 -245 0
340 -336 -339 0
340 336 339 0
-340 -336 339 0
-340 336 -339 0
341 340 0
-341 -340 0
342 -335 0
342 -341 0
-342 335 341 0
-345 2 0
-345 344 0
345 -2 -344 0
-346 345 0
-346 250 0
346 -345 -250 0
347 -343 -346 0
347 343 346 0
-347 -343 346 0
-347 343 -346 0
348 347 0
-348 -347 0
349 -342 0
349 -348 0
-349 342 348 0
-351 150 0
-351 350 0
351 -150 -350 0
-352 351 0
-352 180 0
352 -351 -180 0
-354 150 0
-354 353 0
354 -150 -353 0
-355 354 0
-355 190 0
355 -354 -190 0
356 -352 0
356 -355 0
-356 352 355 0
-358 150 0
-358 357 0
358 -150 -357 0
-359 358 0
-359 200 0
359 -358 -200 0
-361 150 0
-361 360 0
361 -150 -360 0
-362 361 0
-362 210 0
362 -361 -210 0
363 -359 0
363 -362 0
-363 359 362 0
364 -356 0
364 -363 0
-364 356 363 0
-366 150 0
-366 365 0
366 -150 -365 0
-367 366 0
-367 220 0
367 -366 -220 0
-369 150 0
-369 368 0
369 -150 -368 0
-370 369 0
-370 225 0
370 -369 -225 0
371 -367 0
371 -370 0
-371 367 370 0
-373 150 0
-373 372 0
373 -150 -372 0
-374 373 0
-374 230 0
374 -373 -230 0
-376 375 0
-376 235 0
376 -375 -235 0
377 -374 0
377 -376 0
-377 374 376 0
378 -371 0
378 -377 0
-378 371 377 0
379 -364 0
379 -378 0
-379 364 378 0
-381 150 0
-381 380 0
381 -150 -380 0
-382 381 0
-382 245 0
382 -381 -245 0
-384 150 0
-384 383 0
384 -150 -383 0
-385 384 0
-385 250 0
385 -384 -250 0
386 -382 0
386 -385 0
-386 382 385 0
-388 150 0
-388 387 0
388 -150 -387 0
-389 388 0
-389 255 0
389 -388 -255 0
-391 150 0
-391 390 0
391 -150 -390 0
-392 391 0
-392 303 0
392 -391 -303 0
393 -389 0
393 -392 0
-393 389 392 0
394 -386 0
394 -393 0
-394 386 393 0
-397 150 0
-397 396 0
397 -150 -396 0
-398 397 0
-398 276 0
398 -397 -276 0
399 -395 0
399 -398 0
-399 395 398 0
-401 150 0
-401 400 0
401 -150 -400 0
-402 401 0
-402 281 0
402 -401 -281 0
-404 150 0
-404 403 0
404 -150 -403 0
-405 404 0
-405 286 0
405 -404 -286 0
406 -402 0
406 -405 0
-406 402 405 0
407 -399 0
407 -406 0
-407 399 406 0
408 -394 0
408 -407 0
-408 394 407 0
409 -379 0
409 -408 0
-409 379 408 0
-411 2 0
-411 410 0
411 -2 -410 0
-412 411 0
-412 180 0
412 -411 -180 0
-414 2 0
-414 413 0
414 -2 -413 0
-415 414 0
-415 190 0
415 -414 -190 0
416 -412 0
416 -415 0
-416 412 415 0
-418 2 0
-418 417 0
418 -2 -417 0
-419 418 0
-419 200 0
419 -418 -200 0
-421 2 0
-421 420 0
421 -2 -420 0
-422 421 0
-422 210 0
422 -421 -210 0
423 -419 0
423 -422 0
-423 419 422 0
424 -416 0
424 -423 0
-424 416 423 0
-426 2 0
-426 425 0
426 -2 -425 0
-427 426 0
-427 220 0
427 -426 -220 0
-429 2 0
-429 428 0
429 -2 -428 0
-430 429 0
-430 225 0
430 -429 -225 0
431 -427 0
431 -430 0
-431 427 430 0
-433 2 0
-433 432 0
433 -2 -432 0
-434 433 0
-434 230 0
434 -433 -230 0
-436 2 0
-436 435 0
436 -2 -435 0
-437 436 0
-437 235 0
437 -436 -235 0
438 -434 0
438 -437 0
-438 434 437 0
439 -431 0
439 -438 0
-439 431 438 0
440 -424 0
440 -439 0
-440 424 439 0
442 -440 0
442 -441 0
-442 440 441 0
443 -409 0
443 -442 0
-443 409 442 0
-444 1 0
-444 350 0
444 -1 -350 0
-445 444 0
-445 40 0
445 -444 -40 0
-446 1 0
-446 353 0
446 -1 -353 0
-447 446 0
-447 50 0
447 -446 -50 0
448 -445 0
448 -447 0
-448 445 447 0
-449 1 0
-449 357 0
449 -1 -357 0
-450 449 0
-450 60 0
450 -449 -60 0
-451 1 0
-451 360 0
451 -1 -360 0
-452 451 0
-452 70 0
452 -451 -70 0
453 -450 0
453 -452 0
-453 450 452 0
454 -448 0
454 -453 0
-454 448 453 0
-455 1 0
-455 365 0
455 -1 -365 0
-456 455 0
-456 80 0
456 -455 -80 0
-457 1 0
-457 368 0
457 -1 -368 0
-458 457 0
-458 85 0
458 -457 -85 0
459 -456 0
459 -458 0
-459 456 458 0
-460 1 0
-460 372 0
460 -1 -372 0
-461 460 0
-461 90 0
461 -460 -90 0
-463 1 0
-463 462 0
463 -1 -462 0
-464 463 0
-464 95 0
464 -463 -95 0
465 -461 0
465 -464 0
-465 461 464 0
466 -459 0
466 -465 0
-466 459 465 0
467 -454 0
467 -466 0
-467 454 466 0
-468 1 0
-468 380 0
468 -1 -380 0
-469 468 0
-469 105 0
469 -468 -105 0
-470 1 0
-470 383 0
470 -1 -383 0
-471 470 0
-471 110 0
471 -470 -110 0
472 -469 0
472 -471 0
-472 469 471 0
-473 1 0
-473 387 0
473 -1 -387 0
-474 473 0
-474 115 0
474 -473 -115 0
-475 1 0
-475 390 0
475 -1 -390 0
-476 475 0
-476 120 0
476 -475 -120 0
477 -474 0
477 -476 0
-477 474 476 0
478 -472 0
478 -477 0
-478 472 477 0
-480 1 0
-480 479 0
480 -1 -479 0
-481 480 0
-481 130 0
481 -480 -130 0
-482 1 0
-482 396 0
482 -1 -396 0
-483 482 0
-483 135 0
483 -482 -135 0
484 -481 0
484 -483 0
-484 481 483 0
-485 1 0
-485 400 0
485 -1 -400 0
-486 485 0
-486 140 0
486 -485 -140 0
-487 1 0
-487 403 0
487 -1 -403 0
-488 487 0
-488 145 0
488 -487 -145 0
489 -486 0
489 -488 0
-489 486 488 0
490 -484 0
490 -489 0
-490 484 489 0
491 -478 0
491 -490 0
-491 478 490 0
492 -467 0
492 -491 0
-492 467 491 0
-493 411 0
-493 40 0
493 -411 -40 0
-494 414 0
-494 50 0
494 -414 -50 0
495 -493 0
495 -494 0
-495 493 494 0
-496 418 0
-496 60 0
496 -418 -60 0
-497 421 0
-497 70 0
497 -421 -70 0
498 -496 0
498 -497 0
-498 496 497 0
499 -495 0
499 -498 0
-499 495 498 0
-500 426 0
-500 80 0
500 -426 -80 0
-501 429 0
-501 85 0
501 -429 -85 0
502 -500 0
502 -501 0
-502 500 501 0
-503 433 0
-503 90 0
503 -433 -90 0
-504 436 0
-504 95 0
504 -436 -95 0
505 -503 0
505 -504 0
-505 503 504 0
506 -502 0
506 -505 0
-506 502 505 0
507 -499 0
507 -506 0
-507 499 506 0
-508 338 0
-508 105 0
508 -338 -105 0
-509 345 0
-509 110 0
509 -345 -110 0
510 -508 0
510 -509 0
-510 508 509 0
-512 2 0
-512 511 0
512 -2 -511 0
-513 512 0
-513 115 0
513 -512 -115 0
-514 302 0
-514 120 0
514 -302 -120 0
515 -513 0
515 -514 0
-515 513 514 0
516 -510 0
516 -515 0
-516 510 515 0
-517 316 0
-517 130 0
517 -316 -130 0
-518 319 0
-518 135 0
518 -319 -135 0
519 -517 0
519 -518 0
-519 517 518 0
-520 327 0
-520 140 0
520 -327 -140 0
-521 330 0
-521 145 0
521 -330 -145 0
522 -520 0
522 -521 0
-522 520 521 0
523 -519 0
523 -522 0
-523 519 522 0
524 -516 0
524 -523 0
-524 516 523 0
525 -507 0
525 -524 0
-525 507 524 0
526 -492 0
526 -525 0
-526 492 525 0
527 -443 -526 0
527 443 526 0
-527 -443 526 0
-527 443 -526 0
528 -349 0
528 -527 0
-528 349 527 0
528 0
